30	100	100	100
28	100	100
6	100	100
48	100	100
48	100	100
34	100	100
20	100	100
48	100	100
15	100	100
33	100	100
9	100	100
42	100	100
27	100	100
44	100	100
3	100	100
45	100	100
41	100	100
36	100	100
6	100	100
36	100	100
6	100	100
39	100	100
39	100	100
28	100	100
45	100	100
21	100	100
11	100	100
45	100	100
36	100	100
27	100	100
24	100	100
